Instance name:    bar-n100-5.txt
Authors:          PDPTW Solver
Date:             2026-01-16
Reference:        LNS with SA/RTR
Solution: 0;6;849.000;60.00 s
Route 1 :  3 53 37 87 45 95 22 30 80 72 9 59 43 4 93 16 54 66
Route 2 :  15 40 65 11 90 35 61 42 23 92 85 32 82 17 73 67 33 83
Route 3 :  48 28 78 25 98 5 55 19 41 75 69 38 91 14 88 64
Route 4 :  13 63 47 34 84 46 97 49 24 74 99 96 1 2 52 51
Route 5 :  44 27 18 77 68 12 29 94 62 6 56 20 79 8 70 58 39 89
Route 6 :  36 31 50 100 86 10 81 26 60 76 7 21 57 71
